RT is False
Default write of storage_offers_DA.csv just to have a file (but constraint should be inactive)
Reading model...
...model read.
creating competitive generators file...
...competitive generators recorded.
Loading data...
.. day-ahead data with real-time VRE data read.
Compiling instance...
...instance created.
Creating Offer Mitigation (model will solve as dispatch if TRUE)...
NOTE: storage offers will not be mitigated
...storage offer mitigation file created
Converting model to MPEC...
...converted
NOTE: initial MIP solve with only storage competitive to get feasible solution
Solving...

Welcome to IBM(R) ILOG(R) CPLEX(R) Interactive Optimizer 12.9.0.0
  with Simplex, Mixed Integer & Barrier Optimizers
5725-A06 5725-A29 5724-Y48 5724-Y49 5724-Y54 5724-Y55 5655-Y21
Copyright IBM Corp. 1988, 2019.  All Rights Reserved.

Type 'help' for a list of available commands.
Type 'help' followed by a command name for more
information on commands.

CPLEX> Logfile 'cplex.log' closed.
Logfile 'C:\Users\llavin\Desktop\test919\logs\tmp72sv52m3.cplex.log' open.
CPLEX> New value for parallel optimization mode: -1
CPLEX> New value for mixed integer optimality gap tolerance: 0.01
CPLEX> New value for integrality tolerance: 1e-09
CPLEX> New value for feasibility tolerance: 0.01
CPLEX> New value for deterministic time limit in ticks: 75000
CPLEX> Problem 'C:\Users\llavin\Desktop\test919\logs\tmps3nn46wx.pyomo.lp' read.
Read time = 0.27 sec. (14.73 ticks)
CPLEX> Problem name         : C:\Users\llavin\Desktop\test919\logs\tmps3nn46wx.pyomo.lp
Objective sense      : Maximize
Variables            :   53805  [Nneg: 1,  Box: 22000,  Free: 4464,
                                 Binary: 27340]
Objective nonzeros   :    9029
Linear constraints   :  123205  [Less: 41346,  Greater: 59096,  Equal: 22763]
  Nonzeros           :  291753
  RHS nonzeros       :   67491

Variables            : Min LB: -5000.000        Max UB: 1000000.       
Objective nonzeros   : Min   : 0.3833333        Max   : 2500.000       
Linear constraints   :
  Nonzeros           : Min   : 0.3833333        Max   : 1000000.       
  RHS nonzeros       : Min   : 0.3833333        Max   : 1000000.       
CPLEX> CPXPARAM_Parallel                                -1
CPXPARAM_Simplex_Tolerances_Feasibility          0.01
CPXPARAM_DetTimeLimit                            75000
CPXPARAM_MIP_Tolerances_MIPGap                   0.01
CPXPARAM_MIP_Tolerances_Integrality              1.0000000000000001e-09
Tried aggregator 3 times.
MIP Presolve eliminated 88634 rows and 18958 columns.
MIP Presolve added 3379 rows and 0 columns.
MIP Presolve modified 24871 coefficients.
Aggregator did 12989 substitutions.
Reduced MIP has 24961 rows, 21302 columns, and 71183 nonzeros.
Reduced MIP has 8421 binaries, 0 generals, 0 SOSs, and 0 indicators.
Presolve time = 0.30 sec. (173.48 ticks)
Probing fixed 389 vars, tightened 2854 bounds.
Probing time = 1.20 sec. (899.12 ticks)
Tried aggregator 2 times.
MIP Presolve eliminated 881 rows and 780 columns.
MIP Presolve modified 2213 coefficients.
Aggregator did 34 substitutions.
Reduced MIP has 24046 rows, 20488 columns, and 68529 nonzeros.
Reduced MIP has 8032 binaries, 0 generals, 0 SOSs, and 0 indicators.
Presolve time = 0.11 sec. (69.22 ticks)
Probing time = 0.05 sec. (16.29 ticks)
Clique table members: 6521.
MIP emphasis: balance optimality and feasibility.
MIP search method: dynamic search.
Parallel mode: opportunistic, using up to 32 threads.
Root relaxation solution time = 0.44 sec. (551.14 ticks)

        Nodes                                         Cuts/
   Node  Left     Objective  IInf  Best Integer    Best Bound    ItCnt     Gap

      0     0     1138.1377   683                   1138.1377     6073         
*     0+    0                         1128.9741     1138.1377             0.81%

Root node processing (before b&c):
  Real time             =    6.13 sec. (4365.70 ticks)
Parallel b&c, 32 threads:
  Real time             =    0.00 sec. (0.00 ticks)
  Sync time (average)   =    0.00 sec.
  Wait time (average)   =    0.00 sec.
                          ------------
Total (root+branch&cut) =    6.13 sec. (4365.70 ticks)

Solution pool: 1 solution saved.

MIP - Integer optimal, tolerance (0.01/1e-06):  Objective =  1.1289741192e+03
Current MIP best bound =  1.1381376928e+03 (gap = 9.16357, 0.81%)
Solution time =    6.16 sec.  Iterations = 6073  Nodes = 0 (1)
Deterministic time = 4365.85 ticks  (709.20 ticks/sec)

CPLEX> Incumbent solution written to file 'C:\Users\llavin\Desktop\test919\logs\tmp3m17ao2w.cplex.sol'.
CPLEX> NOTE: no warmstart specified for MIP iteration, default behavior is true
NOTE: resolving with all competitive generators using storage-only solution to warmstart
Solving...

Welcome to IBM(R) ILOG(R) CPLEX(R) Interactive Optimizer 12.9.0.0
  with Simplex, Mixed Integer & Barrier Optimizers
5725-A06 5725-A29 5724-Y48 5724-Y49 5724-Y54 5724-Y55 5655-Y21
Copyright IBM Corp. 1988, 2019.  All Rights Reserved.

Type 'help' for a list of available commands.
Type 'help' followed by a command name for more
information on commands.

CPLEX> Logfile 'cplex.log' closed.
Logfile 'C:\Users\llavin\Desktop\test919\logs\tmpe19xdc0r.cplex.log' open.
CPLEX> New value for parallel optimization mode: -1
CPLEX> New value for mixed integer optimality gap tolerance: 0.01
CPLEX> New value for integrality tolerance: 1e-09
CPLEX> New value for feasibility tolerance: 0.01
CPLEX> New value for deterministic time limit in ticks: 75000
CPLEX> Problem 'C:\Users\llavin\Desktop\test919\logs\tmpb35q9hlo.pyomo.lp' read.
Read time = 0.25 sec. (14.75 ticks)
CPLEX> MIP start file 'C:\Users\llavin\Desktop\test919\logs\tmpqaka6283.cplex.mst' read.
CPLEX> Problem name         : C:\Users\llavin\Desktop\test919\logs\tmpb35q9hlo.pyomo.lp
Objective sense      : Maximize
Variables            :   54525  [Nneg: 1,  Box: 22720,  Free: 4464,
                                 Binary: 27340]
Objective nonzeros   :    9725
Linear constraints   :  123205  [Less: 41346,  Greater: 59096,  Equal: 22763]
  Nonzeros           :  291753
  RHS nonzeros       :   67491

Variables            : Min LB: -5000.000        Max UB: 1000000.       
Objective nonzeros   : Min   : 0.3833333        Max   : 2500.000       
Linear constraints   :
  Nonzeros           : Min   : 0.3833333        Max   : 1000000.       
  RHS nonzeros       : Min   : 0.3833333        Max   : 1000000.       
CPLEX> CPXPARAM_Parallel                                -1
CPXPARAM_Simplex_Tolerances_Feasibility          0.01
CPXPARAM_DetTimeLimit                            75000
CPXPARAM_MIP_Tolerances_MIPGap                   0.01
CPXPARAM_MIP_Tolerances_Integrality              1.0000000000000001e-09
Warning:  No solution found from 1 MIP starts.
Retaining values of one MIP start for possible repair.
Tried aggregator 3 times.
MIP Presolve eliminated 88634 rows and 19678 columns.
MIP Presolve added 3379 rows and 0 columns.
MIP Presolve modified 24871 coefficients.
Aggregator did 12989 substitutions.
Reduced MIP has 24961 rows, 21302 columns, and 71183 nonzeros.
Reduced MIP has 8421 binaries, 0 generals, 0 SOSs, and 0 indicators.
Presolve time = 0.30 sec. (173.84 ticks)
Probing fixed 389 vars, tightened 2854 bounds.
Probing time = 1.20 sec. (899.12 ticks)
Tried aggregator 2 times.
MIP Presolve eliminated 881 rows and 780 columns.
MIP Presolve modified 2213 coefficients.
Aggregator did 34 substitutions.
Reduced MIP has 24046 rows, 20488 columns, and 68529 nonzeros.
Reduced MIP has 8032 binaries, 0 generals, 0 SOSs, and 0 indicators.
Presolve time = 0.11 sec. (69.23 ticks)
Probing time = 0.03 sec. (16.29 ticks)
Clique table members: 6521.
MIP emphasis: balance optimality and feasibility.
MIP search method: dynamic search.
Parallel mode: opportunistic, using up to 32 threads.
Root relaxation solution time = 0.34 sec. (271.18 ticks)

        Nodes                                         Cuts/
   Node  Left     Objective  IInf  Best Integer    Best Bound    ItCnt     Gap

      0     0   170686.6393  1778                 170686.6393     5886         
      0     0   167018.3963   693                   Cuts: 713     6302         
      0     0   165829.9450   605                   Cuts: 316     6448         
      0     0   165635.8456   562                   Cuts: 248     6546         
      0     0   165581.2702   541                   Cuts: 142     6609         
      0     0   165569.9257   504                   Cuts: 146     6664         
      0     0   165569.9257   500                    Cuts: 61     6686         
      0     0   165569.9257   492                    Cuts: 68     6703         
      0     0   164246.8897   450                    Cuts: 63     6755         
      0     0   163736.1875   448                    Cuts: 91     6796         
      0     0   163691.4054   448                    Cuts: 69     6809         
      0     0   162936.5207   433                    Cuts: 72     6845         
      0     0   162709.5235   438                    Cuts: 65     6856         
      0     0   162709.5235   433                    Cuts: 52     6862         
Repair heuristic found nothing.
      0     6    infeasible                       135455.4700     7164         
Elapsed time = 12.48 sec. (7845.70 ticks, tree = 0.02 MB, solutions = 0)
    511   149    60814.7014   358                  65124.1208    12339         
    907   732    43644.4980   340                  65124.1208    18521         
   1356   794    46077.1809   385                  65124.1208    19675         
   2012  1058    infeasible                        65124.1208    23643         
   2920  1514    infeasible                        65124.1208    29690         
   4022  2239    10563.8760   280                  65124.1208    37649         
   4879  2512   -10022.5250   282                  65124.1208    41091         
   5580  3998    10221.1091   246                  65113.8059    46725         
   6401  4910     8121.8956   260                  65113.8059    48807         
* 10178+ 4357                        16225.3356    65113.8059           301.31%
Elapsed time = 28.97 sec. (10747.09 ticks, tree = 38.05 MB, solutions = 1)
  11563  8579    infeasible          16225.3356    65113.8059    53381  301.31%
  11565  5134        cutoff          16225.3356    61807.9842    68337  280.94%
  12972   484        cutoff          16225.3356    61105.8440    80649  276.61%
  13698  1500    24408.8556    72    16225.3356    61105.8440   101377  276.61%
  16346  1396    26256.3980    56    31181.7345    55419.6259   106507   77.73%
  18918  1629    33072.1582    90    35052.1622    45565.0136   136773   29.99%
  21122  1208    37927.5606    76    35587.1128    42716.5116   188063   20.03%
* 22261   750      integral     0    36261.6097    42716.5116   209248   17.80%
  23524   875    36099.4060    21    36261.6097    40253.8282   205348   11.01%
* 25124   393      integral     0    36915.1685    38176.9953   216396    3.42%
  25329  1010    37246.9459    57    36915.1685    38176.9953   204132    3.42%
  26156   433    36516.2393    65    36915.1685    38176.9953   213007    3.42%
Elapsed time = 78.80 sec. (26503.23 ticks, tree = 1.74 MB, solutions = 26)

GUB cover cuts applied:  2
Clique cuts applied:  32
Cover cuts applied:  36
Implied bound cuts applied:  71
Flow cuts applied:  1098
Mixed integer rounding cuts applied:  656
Gomory fractional cuts applied:  125

Root node processing (before b&c):
  Real time             =   11.62 sec. (7848.58 ticks)
Parallel b&c, 32 threads:
  Real time             =   67.53 sec. (19250.25 ticks)
  Sync time (average)   =    3.61 sec.
  Wait time (average)   =    0.27 sec.
                          ------------
Total (root+branch&cut) =   79.16 sec. (27098.83 ticks)

Solution pool: 26 solutions saved.

MIP - Integer optimal, tolerance (0.01/1e-06):  Objective =  3.6915168531e+04
Current MIP best bound =  3.7268002867e+04 (gap = 352.834, 0.96%)
Solution time =   79.20 sec.  Iterations = 228485  Nodes = 26219 (63)
Deterministic time = 27098.99 ticks  (342.15 ticks/sec)

CPLEX> Incumbent solution written to file 'C:\Users\llavin\Desktop\test919\logs\tmpp2e_jghq.cplex.sol'.
CPLEX> Exporting results... 
